p wcnf 100 50 51 
1 -99 42 0 
1 21 -72 0 
1 -8 100 0 
1 -37 40 0 
1 -14 -60 0 
1 23 -93 0 
1 55 -56 0 
1 61 81 0 
1 -73 -91 0 
1 11 8 0 
1 -83 -46 0 
1 -31 23 0 
1 71 33 0 
1 -60 50 0 
1 -2 23 0 
1 -98 -64 0 
1 -3 85 0 
1 -81 18 0 
1 -8 -62 0 
1 89 97 0 
1 -32 -23 0 
1 45 -51 0 
1 -53 31 0 
1 -11 -85 0 
1 4 -49 0 
1 80 65 0 
1 61 -26 0 
1 93 25 0 
1 -99 55 0 
1 9 23 0 
1 -61 -52 0 
1 25 79 0 
1 18 -73 0 
1 -28 64 0 
1 31 32 0 
1 -80 -13 0 
1 -22 79 0 
1 16 90 0 
1 -19 -36 0 
1 -33 8 0 
1 44 -56 0 
1 8 48 0 
1 61 98 0 
1 -45 14 0 
1 -79 -74 0 
1 84 17 0 
1 16 -5 0 
1 66 93 0 
1 99 61 0 
1 -24 3 0 
